min: 3 x12 + 8 x13 +5 x14 +20 x15 +5 x23 + 6 x24 + 7 x25 +7 x34 +8 x35 +9 x45 +
 3 x21 + 4 x31 +5 x41 +20 x51 +5 x32 + 6 x42 + 7 x52 +7 x43 +8 x53 +9 x54;

/*path*/
x12 + x13 + x14 = 1;
x23 + x24 + x21 = 1;
x31 + x32 + x34 = 1;
x41 + x42 + x43 = 1;

x21 + x31 + x41 = 1;
x32 + x42 + x12 = 1;
x13 + x23 + x43 = 1;
x14 + x24 + x34 = 1;

/*no cycle*/
x12+x21<=1;
x13+x31<=1;
x14+x41<=1;
x23+x32<=1;
x24+x42<=1;
x34+x43<=1;

x12+x23+x31 <= 2;
x12+x24+x41 <= 2;

x13+x32+x21 <= 2;
x13+x34+x41 <= 2;

x14+x42+x21 <= 2;
x14+x43+x31 <= 2;

x12+x23+x34+x41 <= 4;
x12+x24+x43+x31 <= 4;

x13+x32+x24+x41 <= 4;
x13+x34+x42+x21 <= 4;

x14+x42+x23+x31 <= 4;
x14+x43+x32+x21 <= 4;

/*time service
ts1=0;
ts2=2;
ts3=3;
ts4=2;*/

/*time window
a1=0;b1=0;
a2=1;b2=5;
a3=5;b3=8;
a4=0;b4=10;*/

/*time system
2 x12 <=T1;
T1<= 9 x12;

 x13 <=T2;
T2<=b2;

a1<=T3;
T3<=b2;

a1<=T4;
T4<=b2;*/


/***********************************
* Ti + tdij + tsi - Tj <= M(1- xij)*
************************************/

T1 + t12 + 0  - T<= 100 - 100 x12; 
T1 + t13 + 0  - T3<= 100 - 100 x13;
T1 + t14 + 0  - T4<= 100 - 100 x14;

T2 + t21 + 2  - T1<= 100 - 100 x21;
T2 + t23 + 2  - T3<= 100 - 100 x23;
T2 + t24 + 2  - T4<= 100 - 100 x24;

T3 + t31 + 4  - T1<= 100 - 100 x31;
T3 + t32 + 4  - T2<= 100 - 100 x32;
T3 + t34 + 4  - T4<= 100 - 100 x34;

T4 + t41 + 2  - T1<= 100 - 100 x41;
T4 + t42 + 2  - T2<= 100 - 100 x42;
T4 + t43 + 2  - T3<= 100 - 100 x43;


binary x12, x13, x14, x23, x24,x34,
	x21, x31, x41, x32, x42,x43;
